Data path: /scratch/opt/lxu/CFLG/benchmarks/tree_A
Instance: treeA.600.30
Result path: /scratch/opt/lxu/CFLG/results/tree_A
Solver: Gurobi
Time limit: 7200
Formulation: LEVFP
Cover: Small
julia --project=. src/main.jl /scratch/opt/lxu/CFLG/benchmarks/tree_A treeA.600.30 /scratch/opt/lxu/CFLG/results/tree_A Gurobi 7200 LEVFP Small
The latest version of Julia in the `release` channel is 1.11.5+0.x64.linux.gnu. You currently have `1.11.4+0.x64.linux.gnu` installed. Run:

  juliaup update

in your terminal shell to install Julia 1.11.5+0.x64.linux.gnu and update the `release` channel to that version.
/scratch/opt/lxu/CFLG/benchmarks/tree_A Gurobi 7200.0 /scratch/opt/lxu/CFLG/results/tree_A treeA.600.30 LEVFP Small
/scratch/opt/lxu/CFLG/benchmarks/tree_A/treeA.600.30

 read graph
data loaded


after absorb:372 600

max_piece:36
problem_graph/original graph: node: 372/600 edge: 401/629 dlt: 0.3742290010786427 break_avg_len: 2.3480303409323326 break_max_len: 13.284197160188546elapsed CPU time: 0.08551 seconds
Set parameter TokenServer to value "solice01.zib.de"
Set parameter Threads to value 1
Set parameter OutputFlag to value 1
Set parameter MIPGap to value 0.0001
Set parameter MIPGapAbs to value 0.999998
Set parameter TimeLimit to value 7199.91449

 model loaded

Gurobi Optimizer version 12.0.1 build v12.0.1rc0 (linux64 - "Debian GNU/Linux 12 (bookworm)")

CPU model: Intel(R) Xeon(R) Gold 5122 CPU @ 3.60GHz, instruction set [SSE2|AVX|AVX2|AVX512]
Thread count: 8 physical cores, 16 logical processors, using up to 1 threads

Non-default parameters:
TimeLimit  7199.91449
MIPGapAbs  0.999998
Threads  1

Optimize a model with 7073 rows, 3894 columns and 15779 nonzeros
Model fingerprint: 0xfc4cd59d
Variable types: 773 continuous, 3121 integer (3121 binary)
Coefficient statistics:
  Matrix range     [2e-06, 1e+00]
  Objective range  [1e+00, 1e+00]
  Bounds range     [4e-01, 7e-01]
  RHS range        [5e-04, 6e+00]
Found heuristic solution: objective 1591.0000000
Presolve removed 5018 rows and 2328 columns
Presolve time: 0.03s
Presolved: 2055 rows, 1566 columns, 6132 nonzeros
Variable types: 549 continuous, 1017 integer (1017 binary)
Found heuristic solution: objective 1479.0000000

Root relaxation: objective 1.132280e+03, 1901 iterations, 0.02 seconds (0.01 work units)

    Nodes    |    Current Node    |     Objective Bounds      |     Work
 Expl Unexpl |  Obj  Depth IntInf | Incumbent    BestBd   Gap | It/Node Time

     0     0 1132.27959    0  599 1479.00000 1132.27959  23.4%     -    0s
H    0     0                    1289.0000000 1132.27959  12.2%     -    0s
H    0     0                    1286.0000000 1132.27959  12.0%     -    0s
H    0     0                    1285.0000000 1132.27959  11.9%     -    0s
     0     0 1202.52293    0  437 1285.00000 1202.52293  6.42%     -    0s
H    0     0                    1281.0000000 1202.81219  6.10%     -    0s
     0     0 1204.84093    0  437 1281.00000 1204.84093  5.95%     -    0s
     0     0 1204.96129    0  443 1281.00000 1204.96129  5.94%     -    0s
     0     0 1204.96800    0  442 1281.00000 1204.96800  5.94%     -    0s
     0     0 1218.80706    0  387 1281.00000 1218.80706  4.86%     -    0s
     0     0 1219.17808    0  391 1281.00000 1219.17808  4.83%     -    0s
     0     0 1219.22401    0  392 1281.00000 1219.22401  4.82%     -    0s
     0     0 1222.26201    0  385 1281.00000 1222.26201  4.59%     -    0s
H    0     0                    1267.0000000 1222.26201  3.53%     -    0s
     0     0 1223.06698    0  394 1267.00000 1223.06698  3.47%     -    0s
     0     0 1223.22340    0  418 1267.00000 1223.22340  3.46%     -    0s
     0     0 1223.22833    0  416 1267.00000 1223.22833  3.45%     -    0s
     0     0 1224.95233    0  386 1267.00000 1224.95233  3.32%     -    0s
     0     0 1224.97502    0  398 1267.00000 1224.97502  3.32%     -    0s
     0     0 1225.05851    0  395 1267.00000 1225.05851  3.31%     -    0s
     0     0 1225.55851    0  243 1267.00000 1225.55851  3.27%     -    0s
H    0     0                    1266.0000000 1225.55851  3.19%     -    0s
H    0     0                    1259.0000000 1225.55851  2.66%     -    0s
H    0     0                    1258.0000000 1225.55851  2.58%     -    0s
H    0     0                    1257.0000000 1225.55851  2.50%     -    0s
     0     2 1225.55851    0  242 1257.00000 1225.55851  2.50%     -    0s
H   54    54                    1256.0000000 1225.55851  2.42%  18.3    0s
H  108   108                    1255.0000000 1225.55851  2.35%  12.9    0s
H  135   135                    1254.0000000 1225.55851  2.27%  11.8    0s
H  156   156                    1253.0000000 1225.55851  2.19%  10.9    0s
H  182   182                    1252.0000000 1225.55851  2.11%  10.1    0s
H  378   344                    1251.0000000 1225.55851  2.03%   9.4    1s
H  405   361                    1250.0000000 1225.55851  1.96%   9.2    1s
H  432   374                    1249.0000000 1225.55851  1.88%   9.1    1s
H  521   455                    1247.0000000 1225.55851  1.72%   8.6    1s
H  545   439                    1246.0000000 1232.07688  1.12%   8.2    2s
H  545   417                    1245.0000000 1232.07688  1.04%   8.2    2s
H  553   401                    1244.0000000 1233.60316  0.84%   8.1    2s
   609   438 1244.00000  152  194 1244.00000 1234.84739  0.74%   7.4    5s
H  676   459                    1243.0000000 1236.10749  0.55%  79.7    8s
H  684   441                    1242.0000000 1236.20347  0.47%  78.7    9s
H  684   419                    1241.0000000 1236.20347  0.39%  78.7    9s
   860   523 1238.07071   34   70 1241.00000 1236.29097  0.38%  83.3   10s
  3582  2307 1236.77465   28  200 1241.00000 1236.72324  0.34%  32.5   15s
H 5346  2410                    1240.0000000 1236.78925  0.26%  27.1   17s
  6979  3344 1238.40698   34  139 1240.00000 1236.89538  0.25%  25.1   20s
  9473  4658 1238.60276   38   86 1240.00000 1236.99770  0.24%  24.0   25s
 10203  5063 1238.05483   48  243 1240.00000 1237.02356  0.24%  23.8   31s
 10241  5088 1237.92183   40  154 1240.00000 1237.02356  0.24%  23.7   35s
 10285  5118 1238.00392   37   81 1240.00000 1237.02356  0.24%  23.6   40s
 10333  5150 1239.00000   59  134 1240.00000 1237.12088  0.23%  23.5   45s
 10384  5184 1237.51174   33  120 1240.00000 1237.45938  0.20%  23.4   50s
 10913  5114 1239.00000   43   70 1240.00000 1238.50000  0.12%  32.6   55s

Cutting planes:
  Learned: 63
  Gomory: 28
  Cover: 350
  Implied bound: 13
  Clique: 16
  MIR: 98
  Mixing: 7
  StrongCG: 3
  Flow cover: 397
  GUB cover: 9
  Zero half: 48
  RLT: 15
  Relax-and-lift: 10
  BQP: 1

Explored 11265 nodes (382180 simplex iterations) in 56.11 seconds (31.53 work units)
Thread count was 1 (of 16 available processors)

Solution count 10: 1240 1240 1241 ... 1249

Optimal solution found (tolerance 1.00e-04)
Best objective 1.240000000000e+03, best bound 1.240000000000e+03, gap 0.0000%

User-callback calls 52646, time in user-callback 0.05 sec
Stat(MathOptInterface.OPTIMAL, 1240.0, 1240.0, 0.0, 5.0e-324, 0.08551, 56.110809087753296, 11265, Main.CFLG.LEVFP, "", #undef)
